QPLIB_3714
QBL
minimize
120 # number of variables
40 # number of constraints
2340 # number of quadratic terms in objective
2 1 2.0
3 1 4.0
4 1 6.0
5 1 8.0
6 1 10.0
7 1 12.0
8 1 14.0
9 1 16.0
10 1 18.0
11 1 20.0
12 1 22.0
13 1 24.0
14 1 26.0
15 1 28.0
16 1 30.0
17 1 32.0
18 1 34.0
19 1 36.0
20 1 38.0
21 1 40.0
22 1 42.0
23 1 44.0
24 1 46.0
25 1 48.0
26 1 50.0
27 1 52.0
28 1 54.0
29 1 56.0
30 1 58.0
31 1 60.0
32 1 62.0
33 1 64.0
34 1 66.0
35 1 68.0
36 1 70.0
37 1 72.0
38 1 74.0
39 1 76.0
40 1 78.0
3 2 2.0
4 2 4.0
5 2 6.0
6 2 8.0
7 2 10.0
8 2 12.0
9 2 14.0
10 2 16.0
11 2 18.0
12 2 20.0
13 2 22.0
14 2 24.0
15 2 26.0
16 2 28.0
17 2 30.0
18 2 32.0
19 2 34.0
20 2 36.0
21 2 38.0
22 2 40.0
23 2 42.0
24 2 44.0
25 2 46.0
26 2 48.0
27 2 50.0
28 2 52.0
29 2 54.0
30 2 56.0
31 2 58.0
32 2 60.0
33 2 62.0
34 2 64.0
35 2 66.0
36 2 68.0
37 2 70.0
38 2 72.0
39 2 74.0
40 2 76.0
4 3 2.0
5 3 4.0
6 3 6.0
7 3 8.0
8 3 10.0
9 3 12.0
10 3 14.0
11 3 16.0
12 3 18.0
13 3 20.0
14 3 22.0
15 3 24.0
16 3 26.0
17 3 28.0
18 3 30.0
19 3 32.0
20 3 34.0
21 3 36.0
22 3 38.0
23 3 40.0
24 3 42.0
25 3 44.0
26 3 46.0
27 3 48.0
28 3 50.0
29 3 52.0
30 3 54.0
31 3 56.0
32 3 58.0
33 3 60.0
34 3 62.0
35 3 64.0
36 3 66.0
37 3 68.0
38 3 70.0
39 3 72.0
40 3 74.0
5 4 2.0
6 4 4.0
7 4 6.0
8 4 8.0
9 4 10.0
10 4 12.0
11 4 14.0
12 4 16.0
13 4 18.0
14 4 20.0
15 4 22.0
16 4 24.0
17 4 26.0
18 4 28.0
19 4 30.0
20 4 32.0
21 4 34.0
22 4 36.0
23 4 38.0
24 4 40.0
25 4 42.0
26 4 44.0
27 4 46.0
28 4 48.0
29 4 50.0
30 4 52.0
31 4 54.0
32 4 56.0
33 4 58.0
34 4 60.0
35 4 62.0
36 4 64.0
37 4 66.0
38 4 68.0
39 4 70.0
40 4 72.0
6 5 2.0
7 5 4.0
8 5 6.0
9 5 8.0
10 5 10.0
11 5 12.0
12 5 14.0
13 5 16.0
14 5 18.0
15 5 20.0
16 5 22.0
17 5 24.0
18 5 26.0
19 5 28.0
20 5 30.0
21 5 32.0
22 5 34.0
23 5 36.0
24 5 38.0
25 5 40.0
26 5 42.0
27 5 44.0
28 5 46.0
29 5 48.0
30 5 50.0
31 5 52.0
32 5 54.0
33 5 56.0
34 5 58.0
35 5 60.0
36 5 62.0
37 5 64.0
38 5 66.0
39 5 68.0
40 5 70.0
7 6 2.0
8 6 4.0
9 6 6.0
10 6 8.0
11 6 10.0
12 6 12.0
13 6 14.0
14 6 16.0
15 6 18.0
16 6 20.0
17 6 22.0
18 6 24.0
19 6 26.0
20 6 28.0
21 6 30.0
22 6 32.0
23 6 34.0
24 6 36.0
25 6 38.0
26 6 40.0
27 6 42.0
28 6 44.0
29 6 46.0
30 6 48.0
31 6 50.0
32 6 52.0
33 6 54.0
34 6 56.0
35 6 58.0
36 6 60.0
37 6 62.0
38 6 64.0
39 6 66.0
40 6 68.0
8 7 2.0
9 7 4.0
10 7 6.0
11 7 8.0
12 7 10.0
13 7 12.0
14 7 14.0
15 7 16.0
16 7 18.0
17 7 20.0
18 7 22.0
19 7 24.0
20 7 26.0
21 7 28.0
22 7 30.0
23 7 32.0
24 7 34.0
25 7 36.0
26 7 38.0
27 7 40.0
28 7 42.0
29 7 44.0
30 7 46.0
31 7 48.0
32 7 50.0
33 7 52.0
34 7 54.0
35 7 56.0
36 7 58.0
37 7 60.0
38 7 62.0
39 7 64.0
40 7 66.0
9 8 2.0
10 8 4.0
11 8 6.0
12 8 8.0
13 8 10.0
14 8 12.0
15 8 14.0
16 8 16.0
17 8 18.0
18 8 20.0
19 8 22.0
20 8 24.0
21 8 26.0
22 8 28.0
23 8 30.0
24 8 32.0
25 8 34.0
26 8 36.0
27 8 38.0
28 8 40.0
29 8 42.0
30 8 44.0
31 8 46.0
32 8 48.0
33 8 50.0
34 8 52.0
35 8 54.0
36 8 56.0
37 8 58.0
38 8 60.0
39 8 62.0
40 8 64.0
10 9 2.0
11 9 4.0
12 9 6.0
13 9 8.0
14 9 10.0
15 9 12.0
16 9 14.0
17 9 16.0
18 9 18.0
19 9 20.0
20 9 22.0
21 9 24.0
22 9 26.0
23 9 28.0
24 9 30.0
25 9 32.0
26 9 34.0
27 9 36.0
28 9 38.0
29 9 40.0
30 9 42.0
31 9 44.0
32 9 46.0
33 9 48.0
34 9 50.0
35 9 52.0
36 9 54.0
37 9 56.0
38 9 58.0
39 9 60.0
40 9 62.0
11 10 2.0
12 10 4.0
13 10 6.0
14 10 8.0
15 10 10.0
16 10 12.0
17 10 14.0
18 10 16.0
19 10 18.0
20 10 20.0
21 10 22.0
22 10 24.0
23 10 26.0
24 10 28.0
25 10 30.0
26 10 32.0
27 10 34.0
28 10 36.0
29 10 38.0
30 10 40.0
31 10 42.0
32 10 44.0
33 10 46.0
34 10 48.0
35 10 50.0
36 10 52.0
37 10 54.0
38 10 56.0
39 10 58.0
40 10 60.0
12 11 2.0
13 11 4.0
14 11 6.0
15 11 8.0
16 11 10.0
17 11 12.0
18 11 14.0
19 11 16.0
20 11 18.0
21 11 20.0
22 11 22.0
23 11 24.0
24 11 26.0
25 11 28.0
26 11 30.0
27 11 32.0
28 11 34.0
29 11 36.0
30 11 38.0
31 11 40.0
32 11 42.0
33 11 44.0
34 11 46.0
35 11 48.0
36 11 50.0
37 11 52.0
38 11 54.0
39 11 56.0
40 11 58.0
13 12 2.0
14 12 4.0
15 12 6.0
16 12 8.0
17 12 10.0
18 12 12.0
19 12 14.0
20 12 16.0
21 12 18.0
22 12 20.0
23 12 22.0
24 12 24.0
25 12 26.0
26 12 28.0
27 12 30.0
28 12 32.0
29 12 34.0
30 12 36.0
31 12 38.0
32 12 40.0
33 12 42.0
34 12 44.0
35 12 46.0
36 12 48.0
37 12 50.0
38 12 52.0
39 12 54.0
40 12 56.0
14 13 2.0
15 13 4.0
16 13 6.0
17 13 8.0
18 13 10.0
19 13 12.0
20 13 14.0
21 13 16.0
22 13 18.0
23 13 20.0
24 13 22.0
25 13 24.0
26 13 26.0
27 13 28.0
28 13 30.0
29 13 32.0
30 13 34.0
31 13 36.0
32 13 38.0
33 13 40.0
34 13 42.0
35 13 44.0
36 13 46.0
37 13 48.0
38 13 50.0
39 13 52.0
40 13 54.0
15 14 2.0
16 14 4.0
17 14 6.0
18 14 8.0
19 14 10.0
20 14 12.0
21 14 14.0
22 14 16.0
23 14 18.0
24 14 20.0
25 14 22.0
26 14 24.0
27 14 26.0
28 14 28.0
29 14 30.0
30 14 32.0
31 14 34.0
32 14 36.0
33 14 38.0
34 14 40.0
35 14 42.0
36 14 44.0
37 14 46.0
38 14 48.0
39 14 50.0
40 14 52.0
16 15 2.0
17 15 4.0
18 15 6.0
19 15 8.0
20 15 10.0
21 15 12.0
22 15 14.0
23 15 16.0
24 15 18.0
25 15 20.0
26 15 22.0
27 15 24.0
28 15 26.0
29 15 28.0
30 15 30.0
31 15 32.0
32 15 34.0
33 15 36.0
34 15 38.0
35 15 40.0
36 15 42.0
37 15 44.0
38 15 46.0
39 15 48.0
40 15 50.0
17 16 2.0
18 16 4.0
19 16 6.0
20 16 8.0
21 16 10.0
22 16 12.0
23 16 14.0
24 16 16.0
25 16 18.0
26 16 20.0
27 16 22.0
28 16 24.0
29 16 26.0
30 16 28.0
31 16 30.0
32 16 32.0
33 16 34.0
34 16 36.0
35 16 38.0
36 16 40.0
37 16 42.0
38 16 44.0
39 16 46.0
40 16 48.0
18 17 2.0
19 17 4.0
20 17 6.0
21 17 8.0
22 17 10.0
23 17 12.0
24 17 14.0
25 17 16.0
26 17 18.0
27 17 20.0
28 17 22.0
29 17 24.0
30 17 26.0
31 17 28.0
32 17 30.0
33 17 32.0
34 17 34.0
35 17 36.0
36 17 38.0
37 17 40.0
38 17 42.0
39 17 44.0
40 17 46.0
19 18 2.0
20 18 4.0
21 18 6.0
22 18 8.0
23 18 10.0
24 18 12.0
25 18 14.0
26 18 16.0
27 18 18.0
28 18 20.0
29 18 22.0
30 18 24.0
31 18 26.0
32 18 28.0
33 18 30.0
34 18 32.0
35 18 34.0
36 18 36.0
37 18 38.0
38 18 40.0
39 18 42.0
40 18 44.0
20 19 2.0
21 19 4.0
22 19 6.0
23 19 8.0
24 19 10.0
25 19 12.0
26 19 14.0
27 19 16.0
28 19 18.0
29 19 20.0
30 19 22.0
31 19 24.0
32 19 26.0
33 19 28.0
34 19 30.0
35 19 32.0
36 19 34.0
37 19 36.0
38 19 38.0
39 19 40.0
40 19 42.0
21 20 2.0
22 20 4.0
23 20 6.0
24 20 8.0
25 20 10.0
26 20 12.0
27 20 14.0
28 20 16.0
29 20 18.0
30 20 20.0
31 20 22.0
32 20 24.0
33 20 26.0
34 20 28.0
35 20 30.0
36 20 32.0
37 20 34.0
38 20 36.0
39 20 38.0
40 20 40.0
22 21 2.0
23 21 4.0
24 21 6.0
25 21 8.0
26 21 10.0
27 21 12.0
28 21 14.0
29 21 16.0
30 21 18.0
31 21 20.0
32 21 22.0
33 21 24.0
34 21 26.0
35 21 28.0
36 21 30.0
37 21 32.0
38 21 34.0
39 21 36.0
40 21 38.0
23 22 2.0
24 22 4.0
25 22 6.0
26 22 8.0
27 22 10.0
28 22 12.0
29 22 14.0
30 22 16.0
31 22 18.0
32 22 20.0
33 22 22.0
34 22 24.0
35 22 26.0
36 22 28.0
37 22 30.0
38 22 32.0
39 22 34.0
40 22 36.0
24 23 2.0
25 23 4.0
26 23 6.0
27 23 8.0
28 23 10.0
29 23 12.0
30 23 14.0
31 23 16.0
32 23 18.0
33 23 20.0
34 23 22.0
35 23 24.0
36 23 26.0
37 23 28.0
38 23 30.0
39 23 32.0
40 23 34.0
25 24 2.0
26 24 4.0
27 24 6.0
28 24 8.0
29 24 10.0
30 24 12.0
31 24 14.0
32 24 16.0
33 24 18.0
34 24 20.0
35 24 22.0
36 24 24.0
37 24 26.0
38 24 28.0
39 24 30.0
40 24 32.0
26 25 2.0
27 25 4.0
28 25 6.0
29 25 8.0
30 25 10.0
31 25 12.0
32 25 14.0
33 25 16.0
34 25 18.0
35 25 20.0
36 25 22.0
37 25 24.0
38 25 26.0
39 25 28.0
40 25 30.0
27 26 2.0
28 26 4.0
29 26 6.0
30 26 8.0
31 26 10.0
32 26 12.0
33 26 14.0
34 26 16.0
35 26 18.0
36 26 20.0
37 26 22.0
38 26 24.0
39 26 26.0
40 26 28.0
28 27 2.0
29 27 4.0
30 27 6.0
31 27 8.0
32 27 10.0
33 27 12.0
34 27 14.0
35 27 16.0
36 27 18.0
37 27 20.0
38 27 22.0
39 27 24.0
40 27 26.0
29 28 2.0
30 28 4.0
31 28 6.0
32 28 8.0
33 28 10.0
34 28 12.0
35 28 14.0
36 28 16.0
37 28 18.0
38 28 20.0
39 28 22.0
40 28 24.0
30 29 2.0
31 29 4.0
32 29 6.0
33 29 8.0
34 29 10.0
35 29 12.0
36 29 14.0
37 29 16.0
38 29 18.0
39 29 20.0
40 29 22.0
31 30 2.0
32 30 4.0
33 30 6.0
34 30 8.0
35 30 10.0
36 30 12.0
37 30 14.0
38 30 16.0
39 30 18.0
40 30 20.0
32 31 2.0
33 31 4.0
34 31 6.0
35 31 8.0
36 31 10.0
37 31 12.0
38 31 14.0
39 31 16.0
40 31 18.0
33 32 2.0
34 32 4.0
35 32 6.0
36 32 8.0
37 32 10.0
38 32 12.0
39 32 14.0
40 32 16.0
34 33 2.0
35 33 4.0
36 33 6.0
37 33 8.0
38 33 10.0
39 33 12.0
40 33 14.0
35 34 2.0
36 34 4.0
37 34 6.0
38 34 8.0
39 34 10.0
40 34 12.0
36 35 2.0
37 35 4.0
38 35 6.0
39 35 8.0
40 35 10.0
37 36 2.0
38 36 4.0
39 36 6.0
40 36 8.0
38 37 2.0
39 37 4.0
40 37 6.0
39 38 2.0
40 38 4.0
40 39 2.0
42 41 2.0
43 41 4.0
44 41 6.0
45 41 8.0
46 41 10.0
47 41 12.0
48 41 14.0
49 41 16.0
50 41 18.0
51 41 20.0
52 41 22.0
53 41 24.0
54 41 26.0
55 41 28.0
56 41 30.0
57 41 32.0
58 41 34.0
59 41 36.0
60 41 38.0
61 41 40.0
62 41 42.0
63 41 44.0
64 41 46.0
65 41 48.0
66 41 50.0
67 41 52.0
68 41 54.0
69 41 56.0
70 41 58.0
71 41 60.0
72 41 62.0
73 41 64.0
74 41 66.0
75 41 68.0
76 41 70.0
77 41 72.0
78 41 74.0
79 41 76.0
80 41 78.0
43 42 2.0
44 42 4.0
45 42 6.0
46 42 8.0
47 42 10.0
48 42 12.0
49 42 14.0
50 42 16.0
51 42 18.0
52 42 20.0
53 42 22.0
54 42 24.0
55 42 26.0
56 42 28.0
57 42 30.0
58 42 32.0
59 42 34.0
60 42 36.0
61 42 38.0
62 42 40.0
63 42 42.0
64 42 44.0
65 42 46.0
66 42 48.0
67 42 50.0
68 42 52.0
69 42 54.0
70 42 56.0
71 42 58.0
72 42 60.0
73 42 62.0
74 42 64.0
75 42 66.0
76 42 68.0
77 42 70.0
78 42 72.0
79 42 74.0
80 42 76.0
44 43 2.0
45 43 4.0
46 43 6.0
47 43 8.0
48 43 10.0
49 43 12.0
50 43 14.0
51 43 16.0
52 43 18.0
53 43 20.0
54 43 22.0
55 43 24.0
56 43 26.0
57 43 28.0
58 43 30.0
59 43 32.0
60 43 34.0
61 43 36.0
62 43 38.0
63 43 40.0
64 43 42.0
65 43 44.0
66 43 46.0
67 43 48.0
68 43 50.0
69 43 52.0
70 43 54.0
71 43 56.0
72 43 58.0
73 43 60.0
74 43 62.0
75 43 64.0
76 43 66.0
77 43 68.0
78 43 70.0
79 43 72.0
80 43 74.0
45 44 2.0
46 44 4.0
47 44 6.0
48 44 8.0
49 44 10.0
50 44 12.0
51 44 14.0
52 44 16.0
53 44 18.0
54 44 20.0
55 44 22.0
56 44 24.0
57 44 26.0
58 44 28.0
59 44 30.0
60 44 32.0
61 44 34.0
62 44 36.0
63 44 38.0
64 44 40.0
65 44 42.0
66 44 44.0
67 44 46.0
68 44 48.0
69 44 50.0
70 44 52.0
71 44 54.0
72 44 56.0
73 44 58.0
74 44 60.0
75 44 62.0
76 44 64.0
77 44 66.0
78 44 68.0
79 44 70.0
80 44 72.0
46 45 2.0
47 45 4.0
48 45 6.0
49 45 8.0
50 45 10.0
51 45 12.0
52 45 14.0
53 45 16.0
54 45 18.0
55 45 20.0
56 45 22.0
57 45 24.0
58 45 26.0
59 45 28.0
60 45 30.0
61 45 32.0
62 45 34.0
63 45 36.0
64 45 38.0
65 45 40.0
66 45 42.0
67 45 44.0
68 45 46.0
69 45 48.0
70 45 50.0
71 45 52.0
72 45 54.0
73 45 56.0
74 45 58.0
75 45 60.0
76 45 62.0
77 45 64.0
78 45 66.0
79 45 68.0
80 45 70.0
47 46 2.0
48 46 4.0
49 46 6.0
50 46 8.0
51 46 10.0
52 46 12.0
53 46 14.0
54 46 16.0
55 46 18.0
56 46 20.0
57 46 22.0
58 46 24.0
59 46 26.0
60 46 28.0
61 46 30.0
62 46 32.0
63 46 34.0
64 46 36.0
65 46 38.0
66 46 40.0
67 46 42.0
68 46 44.0
69 46 46.0
70 46 48.0
71 46 50.0
72 46 52.0
73 46 54.0
74 46 56.0
75 46 58.0
76 46 60.0
77 46 62.0
78 46 64.0
79 46 66.0
80 46 68.0
48 47 2.0
49 47 4.0
50 47 6.0
51 47 8.0
52 47 10.0
53 47 12.0
54 47 14.0
55 47 16.0
56 47 18.0
57 47 20.0
58 47 22.0
59 47 24.0
60 47 26.0
61 47 28.0
62 47 30.0
63 47 32.0
64 47 34.0
65 47 36.0
66 47 38.0
67 47 40.0
68 47 42.0
69 47 44.0
70 47 46.0
71 47 48.0
72 47 50.0
73 47 52.0
74 47 54.0
75 47 56.0
76 47 58.0
77 47 60.0
78 47 62.0
79 47 64.0
80 47 66.0
49 48 2.0
50 48 4.0
51 48 6.0
52 48 8.0
53 48 10.0
54 48 12.0
55 48 14.0
56 48 16.0
57 48 18.0
58 48 20.0
59 48 22.0
60 48 24.0
61 48 26.0
62 48 28.0
63 48 30.0
64 48 32.0
65 48 34.0
66 48 36.0
67 48 38.0
68 48 40.0
69 48 42.0
70 48 44.0
71 48 46.0
72 48 48.0
73 48 50.0
74 48 52.0
75 48 54.0
76 48 56.0
77 48 58.0
78 48 60.0
79 48 62.0
80 48 64.0
50 49 2.0
51 49 4.0
52 49 6.0
53 49 8.0
54 49 10.0
55 49 12.0
56 49 14.0
57 49 16.0
58 49 18.0
59 49 20.0
60 49 22.0
61 49 24.0
62 49 26.0
63 49 28.0
64 49 30.0
65 49 32.0
66 49 34.0
67 49 36.0
68 49 38.0
69 49 40.0
70 49 42.0
71 49 44.0
72 49 46.0
73 49 48.0
74 49 50.0
75 49 52.0
76 49 54.0
77 49 56.0
78 49 58.0
79 49 60.0
80 49 62.0
51 50 2.0
52 50 4.0
53 50 6.0
54 50 8.0
55 50 10.0
56 50 12.0
57 50 14.0
58 50 16.0
59 50 18.0
60 50 20.0
61 50 22.0
62 50 24.0
63 50 26.0
64 50 28.0
65 50 30.0
66 50 32.0
67 50 34.0
68 50 36.0
69 50 38.0
70 50 40.0
71 50 42.0
72 50 44.0
73 50 46.0
74 50 48.0
75 50 50.0
76 50 52.0
77 50 54.0
78 50 56.0
79 50 58.0
80 50 60.0
52 51 2.0
53 51 4.0
54 51 6.0
55 51 8.0
56 51 10.0
57 51 12.0
58 51 14.0
59 51 16.0
60 51 18.0
61 51 20.0
62 51 22.0
63 51 24.0
64 51 26.0
65 51 28.0
66 51 30.0
67 51 32.0
68 51 34.0
69 51 36.0
70 51 38.0
71 51 40.0
72 51 42.0
73 51 44.0
74 51 46.0
75 51 48.0
76 51 50.0
77 51 52.0
78 51 54.0
79 51 56.0
80 51 58.0
53 52 2.0
54 52 4.0
55 52 6.0
56 52 8.0
57 52 10.0
58 52 12.0
59 52 14.0
60 52 16.0
61 52 18.0
62 52 20.0
63 52 22.0
64 52 24.0
65 52 26.0
66 52 28.0
67 52 30.0
68 52 32.0
69 52 34.0
70 52 36.0
71 52 38.0
72 52 40.0
73 52 42.0
74 52 44.0
75 52 46.0
76 52 48.0
77 52 50.0
78 52 52.0
79 52 54.0
80 52 56.0
54 53 2.0
55 53 4.0
56 53 6.0
57 53 8.0
58 53 10.0
59 53 12.0
60 53 14.0
61 53 16.0
62 53 18.0
63 53 20.0
64 53 22.0
65 53 24.0
66 53 26.0
67 53 28.0
68 53 30.0
69 53 32.0
70 53 34.0
71 53 36.0
72 53 38.0
73 53 40.0
74 53 42.0
75 53 44.0
76 53 46.0
77 53 48.0
78 53 50.0
79 53 52.0
80 53 54.0
55 54 2.0
56 54 4.0
57 54 6.0
58 54 8.0
59 54 10.0
60 54 12.0
61 54 14.0
62 54 16.0
63 54 18.0
64 54 20.0
65 54 22.0
66 54 24.0
67 54 26.0
68 54 28.0
69 54 30.0
70 54 32.0
71 54 34.0
72 54 36.0
73 54 38.0
74 54 40.0
75 54 42.0
76 54 44.0
77 54 46.0
78 54 48.0
79 54 50.0
80 54 52.0
56 55 2.0
57 55 4.0
58 55 6.0
59 55 8.0
60 55 10.0
61 55 12.0
62 55 14.0
63 55 16.0
64 55 18.0
65 55 20.0
66 55 22.0
67 55 24.0
68 55 26.0
69 55 28.0
70 55 30.0
71 55 32.0
72 55 34.0
73 55 36.0
74 55 38.0
75 55 40.0
76 55 42.0
77 55 44.0
78 55 46.0
79 55 48.0
80 55 50.0
57 56 2.0
58 56 4.0
59 56 6.0
60 56 8.0
61 56 10.0
62 56 12.0
63 56 14.0
64 56 16.0
65 56 18.0
66 56 20.0
67 56 22.0
68 56 24.0
69 56 26.0
70 56 28.0
71 56 30.0
72 56 32.0
73 56 34.0
74 56 36.0
75 56 38.0
76 56 40.0
77 56 42.0
78 56 44.0
79 56 46.0
80 56 48.0
58 57 2.0
59 57 4.0
60 57 6.0
61 57 8.0
62 57 10.0
63 57 12.0
64 57 14.0
65 57 16.0
66 57 18.0
67 57 20.0
68 57 22.0
69 57 24.0
70 57 26.0
71 57 28.0
72 57 30.0
73 57 32.0
74 57 34.0
75 57 36.0
76 57 38.0
77 57 40.0
78 57 42.0
79 57 44.0
80 57 46.0
59 58 2.0
60 58 4.0
61 58 6.0
62 58 8.0
63 58 10.0
64 58 12.0
65 58 14.0
66 58 16.0
67 58 18.0
68 58 20.0
69 58 22.0
70 58 24.0
71 58 26.0
72 58 28.0
73 58 30.0
74 58 32.0
75 58 34.0
76 58 36.0
77 58 38.0
78 58 40.0
79 58 42.0
80 58 44.0
60 59 2.0
61 59 4.0
62 59 6.0
63 59 8.0
64 59 10.0
65 59 12.0
66 59 14.0
67 59 16.0
68 59 18.0
69 59 20.0
70 59 22.0
71 59 24.0
72 59 26.0
73 59 28.0
74 59 30.0
75 59 32.0
76 59 34.0
77 59 36.0
78 59 38.0
79 59 40.0
80 59 42.0
61 60 2.0
62 60 4.0
63 60 6.0
64 60 8.0
65 60 10.0
66 60 12.0
67 60 14.0
68 60 16.0
69 60 18.0
70 60 20.0
71 60 22.0
72 60 24.0
73 60 26.0
74 60 28.0
75 60 30.0
76 60 32.0
77 60 34.0
78 60 36.0
79 60 38.0
80 60 40.0
62 61 2.0
63 61 4.0
64 61 6.0
65 61 8.0
66 61 10.0
67 61 12.0
68 61 14.0
69 61 16.0
70 61 18.0
71 61 20.0
72 61 22.0
73 61 24.0
74 61 26.0
75 61 28.0
76 61 30.0
77 61 32.0
78 61 34.0
79 61 36.0
80 61 38.0
63 62 2.0
64 62 4.0
65 62 6.0
66 62 8.0
67 62 10.0
68 62 12.0
69 62 14.0
70 62 16.0
71 62 18.0
72 62 20.0
73 62 22.0
74 62 24.0
75 62 26.0
76 62 28.0
77 62 30.0
78 62 32.0
79 62 34.0
80 62 36.0
64 63 2.0
65 63 4.0
66 63 6.0
67 63 8.0
68 63 10.0
69 63 12.0
70 63 14.0
71 63 16.0
72 63 18.0
73 63 20.0
74 63 22.0
75 63 24.0
76 63 26.0
77 63 28.0
78 63 30.0
79 63 32.0
80 63 34.0
65 64 2.0
66 64 4.0
67 64 6.0
68 64 8.0
69 64 10.0
70 64 12.0
71 64 14.0
72 64 16.0
73 64 18.0
74 64 20.0
75 64 22.0
76 64 24.0
77 64 26.0
78 64 28.0
79 64 30.0
80 64 32.0
66 65 2.0
67 65 4.0
68 65 6.0
69 65 8.0
70 65 10.0
71 65 12.0
72 65 14.0
73 65 16.0
74 65 18.0
75 65 20.0
76 65 22.0
77 65 24.0
78 65 26.0
79 65 28.0
80 65 30.0
67 66 2.0
68 66 4.0
69 66 6.0
70 66 8.0
71 66 10.0
72 66 12.0
73 66 14.0
74 66 16.0
75 66 18.0
76 66 20.0
77 66 22.0
78 66 24.0
79 66 26.0
80 66 28.0
68 67 2.0
69 67 4.0
70 67 6.0
71 67 8.0
72 67 10.0
73 67 12.0
74 67 14.0
75 67 16.0
76 67 18.0
77 67 20.0
78 67 22.0
79 67 24.0
80 67 26.0
69 68 2.0
70 68 4.0
71 68 6.0
72 68 8.0
73 68 10.0
74 68 12.0
75 68 14.0
76 68 16.0
77 68 18.0
78 68 20.0
79 68 22.0
80 68 24.0
70 69 2.0
71 69 4.0
72 69 6.0
73 69 8.0
74 69 10.0
75 69 12.0
76 69 14.0
77 69 16.0
78 69 18.0
79 69 20.0
80 69 22.0
71 70 2.0
72 70 4.0
73 70 6.0
74 70 8.0
75 70 10.0
76 70 12.0
77 70 14.0
78 70 16.0
79 70 18.0
80 70 20.0
72 71 2.0
73 71 4.0
74 71 6.0
75 71 8.0
76 71 10.0
77 71 12.0
78 71 14.0
79 71 16.0
80 71 18.0
73 72 2.0
74 72 4.0
75 72 6.0
76 72 8.0
77 72 10.0
78 72 12.0
79 72 14.0
80 72 16.0
74 73 2.0
75 73 4.0
76 73 6.0
77 73 8.0
78 73 10.0
79 73 12.0
80 73 14.0
75 74 2.0
76 74 4.0
77 74 6.0
78 74 8.0
79 74 10.0
80 74 12.0
76 75 2.0
77 75 4.0
78 75 6.0
79 75 8.0
80 75 10.0
77 76 2.0
78 76 4.0
79 76 6.0
80 76 8.0
78 77 2.0
79 77 4.0
80 77 6.0
79 78 2.0
80 78 4.0
80 79 2.0
82 81 2.0
83 81 4.0
84 81 6.0
85 81 8.0
86 81 10.0
87 81 12.0
88 81 14.0
89 81 16.0
90 81 18.0
91 81 20.0
92 81 22.0
93 81 24.0
94 81 26.0
95 81 28.0
96 81 30.0
97 81 32.0
98 81 34.0
99 81 36.0
100 81 38.0
101 81 40.0
102 81 42.0
103 81 44.0
104 81 46.0
105 81 48.0
106 81 50.0
107 81 52.0
108 81 54.0
109 81 56.0
110 81 58.0
111 81 60.0
112 81 62.0
113 81 64.0
114 81 66.0
115 81 68.0
116 81 70.0
117 81 72.0
118 81 74.0
119 81 76.0
120 81 78.0
83 82 2.0
84 82 4.0
85 82 6.0
86 82 8.0
87 82 10.0
88 82 12.0
89 82 14.0
90 82 16.0
91 82 18.0
92 82 20.0
93 82 22.0
94 82 24.0
95 82 26.0
96 82 28.0
97 82 30.0
98 82 32.0
99 82 34.0
100 82 36.0
101 82 38.0
102 82 40.0
103 82 42.0
104 82 44.0
105 82 46.0
106 82 48.0
107 82 50.0
108 82 52.0
109 82 54.0
110 82 56.0
111 82 58.0
112 82 60.0
113 82 62.0
114 82 64.0
115 82 66.0
116 82 68.0
117 82 70.0
118 82 72.0
119 82 74.0
120 82 76.0
84 83 2.0
85 83 4.0
86 83 6.0
87 83 8.0
88 83 10.0
89 83 12.0
90 83 14.0
91 83 16.0
92 83 18.0
93 83 20.0
94 83 22.0
95 83 24.0
96 83 26.0
97 83 28.0
98 83 30.0
99 83 32.0
100 83 34.0
101 83 36.0
102 83 38.0
103 83 40.0
104 83 42.0
105 83 44.0
106 83 46.0
107 83 48.0
108 83 50.0
109 83 52.0
110 83 54.0
111 83 56.0
112 83 58.0
113 83 60.0
114 83 62.0
115 83 64.0
116 83 66.0
117 83 68.0
118 83 70.0
119 83 72.0
120 83 74.0
85 84 2.0
86 84 4.0
87 84 6.0
88 84 8.0
89 84 10.0
90 84 12.0
91 84 14.0
92 84 16.0
93 84 18.0
94 84 20.0
95 84 22.0
96 84 24.0
97 84 26.0
98 84 28.0
99 84 30.0
100 84 32.0
101 84 34.0
102 84 36.0
103 84 38.0
104 84 40.0
105 84 42.0
106 84 44.0
107 84 46.0
108 84 48.0
109 84 50.0
110 84 52.0
111 84 54.0
112 84 56.0
113 84 58.0
114 84 60.0
115 84 62.0
116 84 64.0
117 84 66.0
118 84 68.0
119 84 70.0
120 84 72.0
86 85 2.0
87 85 4.0
88 85 6.0
89 85 8.0
90 85 10.0
91 85 12.0
92 85 14.0
93 85 16.0
94 85 18.0
95 85 20.0
96 85 22.0
97 85 24.0
98 85 26.0
99 85 28.0
100 85 30.0
101 85 32.0
102 85 34.0
103 85 36.0
104 85 38.0
105 85 40.0
106 85 42.0
107 85 44.0
108 85 46.0
109 85 48.0
110 85 50.0
111 85 52.0
112 85 54.0
113 85 56.0
114 85 58.0
115 85 60.0
116 85 62.0
117 85 64.0
118 85 66.0
119 85 68.0
120 85 70.0
87 86 2.0
88 86 4.0
89 86 6.0
90 86 8.0
91 86 10.0
92 86 12.0
93 86 14.0
94 86 16.0
95 86 18.0
96 86 20.0
97 86 22.0
98 86 24.0
99 86 26.0
100 86 28.0
101 86 30.0
102 86 32.0
103 86 34.0
104 86 36.0
105 86 38.0
106 86 40.0
107 86 42.0
108 86 44.0
109 86 46.0
110 86 48.0
111 86 50.0
112 86 52.0
113 86 54.0
114 86 56.0
115 86 58.0
116 86 60.0
117 86 62.0
118 86 64.0
119 86 66.0
120 86 68.0
88 87 2.0
89 87 4.0
90 87 6.0
91 87 8.0
92 87 10.0
93 87 12.0
94 87 14.0
95 87 16.0
96 87 18.0
97 87 20.0
98 87 22.0
99 87 24.0
100 87 26.0
101 87 28.0
102 87 30.0
103 87 32.0
104 87 34.0
105 87 36.0
106 87 38.0
107 87 40.0
108 87 42.0
109 87 44.0
110 87 46.0
111 87 48.0
112 87 50.0
113 87 52.0
114 87 54.0
115 87 56.0
116 87 58.0
117 87 60.0
118 87 62.0
119 87 64.0
120 87 66.0
89 88 2.0
90 88 4.0
91 88 6.0
92 88 8.0
93 88 10.0
94 88 12.0
95 88 14.0
96 88 16.0
97 88 18.0
98 88 20.0
99 88 22.0
100 88 24.0
101 88 26.0
102 88 28.0
103 88 30.0
104 88 32.0
105 88 34.0
106 88 36.0
107 88 38.0
108 88 40.0
109 88 42.0
110 88 44.0
111 88 46.0
112 88 48.0
113 88 50.0
114 88 52.0
115 88 54.0
116 88 56.0
117 88 58.0
118 88 60.0
119 88 62.0
120 88 64.0
90 89 2.0
91 89 4.0
92 89 6.0
93 89 8.0
94 89 10.0
95 89 12.0
96 89 14.0
97 89 16.0
98 89 18.0
99 89 20.0
100 89 22.0
101 89 24.0
102 89 26.0
103 89 28.0
104 89 30.0
105 89 32.0
106 89 34.0
107 89 36.0
108 89 38.0
109 89 40.0
110 89 42.0
111 89 44.0
112 89 46.0
113 89 48.0
114 89 50.0
115 89 52.0
116 89 54.0
117 89 56.0
118 89 58.0
119 89 60.0
120 89 62.0
91 90 2.0
92 90 4.0
93 90 6.0
94 90 8.0
95 90 10.0
96 90 12.0
97 90 14.0
98 90 16.0
99 90 18.0
100 90 20.0
101 90 22.0
102 90 24.0
103 90 26.0
104 90 28.0
105 90 30.0
106 90 32.0
107 90 34.0
108 90 36.0
109 90 38.0
110 90 40.0
111 90 42.0
112 90 44.0
113 90 46.0
114 90 48.0
115 90 50.0
116 90 52.0
117 90 54.0
118 90 56.0
119 90 58.0
120 90 60.0
92 91 2.0
93 91 4.0
94 91 6.0
95 91 8.0
96 91 10.0
97 91 12.0
98 91 14.0
99 91 16.0
100 91 18.0
101 91 20.0
102 91 22.0
103 91 24.0
104 91 26.0
105 91 28.0
106 91 30.0
107 91 32.0
108 91 34.0
109 91 36.0
110 91 38.0
111 91 40.0
112 91 42.0
113 91 44.0
114 91 46.0
115 91 48.0
116 91 50.0
117 91 52.0
118 91 54.0
119 91 56.0
120 91 58.0
93 92 2.0
94 92 4.0
95 92 6.0
96 92 8.0
97 92 10.0
98 92 12.0
99 92 14.0
100 92 16.0
101 92 18.0
102 92 20.0
103 92 22.0
104 92 24.0
105 92 26.0
106 92 28.0
107 92 30.0
108 92 32.0
109 92 34.0
110 92 36.0
111 92 38.0
112 92 40.0
113 92 42.0
114 92 44.0
115 92 46.0
116 92 48.0
117 92 50.0
118 92 52.0
119 92 54.0
120 92 56.0
94 93 2.0
95 93 4.0
96 93 6.0
97 93 8.0
98 93 10.0
99 93 12.0
100 93 14.0
101 93 16.0
102 93 18.0
103 93 20.0
104 93 22.0
105 93 24.0
106 93 26.0
107 93 28.0
108 93 30.0
109 93 32.0
110 93 34.0
111 93 36.0
112 93 38.0
113 93 40.0
114 93 42.0
115 93 44.0
116 93 46.0
117 93 48.0
118 93 50.0
119 93 52.0
120 93 54.0
95 94 2.0
96 94 4.0
97 94 6.0
98 94 8.0
99 94 10.0
100 94 12.0
101 94 14.0
102 94 16.0
103 94 18.0
104 94 20.0
105 94 22.0
106 94 24.0
107 94 26.0
108 94 28.0
109 94 30.0
110 94 32.0
111 94 34.0
112 94 36.0
113 94 38.0
114 94 40.0
115 94 42.0
116 94 44.0
117 94 46.0
118 94 48.0
119 94 50.0
120 94 52.0
96 95 2.0
97 95 4.0
98 95 6.0
99 95 8.0
100 95 10.0
101 95 12.0
102 95 14.0
103 95 16.0
104 95 18.0
105 95 20.0
106 95 22.0
107 95 24.0
108 95 26.0
109 95 28.0
110 95 30.0
111 95 32.0
112 95 34.0
113 95 36.0
114 95 38.0
115 95 40.0
116 95 42.0
117 95 44.0
118 95 46.0
119 95 48.0
120 95 50.0
97 96 2.0
98 96 4.0
99 96 6.0
100 96 8.0
101 96 10.0
102 96 12.0
103 96 14.0
104 96 16.0
105 96 18.0
106 96 20.0
107 96 22.0
108 96 24.0
109 96 26.0
110 96 28.0
111 96 30.0
112 96 32.0
113 96 34.0
114 96 36.0
115 96 38.0
116 96 40.0
117 96 42.0
118 96 44.0
119 96 46.0
120 96 48.0
98 97 2.0
99 97 4.0
100 97 6.0
101 97 8.0
102 97 10.0
103 97 12.0
104 97 14.0
105 97 16.0
106 97 18.0
107 97 20.0
108 97 22.0
109 97 24.0
110 97 26.0
111 97 28.0
112 97 30.0
113 97 32.0
114 97 34.0
115 97 36.0
116 97 38.0
117 97 40.0
118 97 42.0
119 97 44.0
120 97 46.0
99 98 2.0
100 98 4.0
101 98 6.0
102 98 8.0
103 98 10.0
104 98 12.0
105 98 14.0
106 98 16.0
107 98 18.0
108 98 20.0
109 98 22.0
110 98 24.0
111 98 26.0
112 98 28.0
113 98 30.0
114 98 32.0
115 98 34.0
116 98 36.0
117 98 38.0
118 98 40.0
119 98 42.0
120 98 44.0
100 99 2.0
101 99 4.0
102 99 6.0
103 99 8.0
104 99 10.0
105 99 12.0
106 99 14.0
107 99 16.0
108 99 18.0
109 99 20.0
110 99 22.0
111 99 24.0
112 99 26.0
113 99 28.0
114 99 30.0
115 99 32.0
116 99 34.0
117 99 36.0
118 99 38.0
119 99 40.0
120 99 42.0
101 100 2.0
102 100 4.0
103 100 6.0
104 100 8.0
105 100 10.0
106 100 12.0
107 100 14.0
108 100 16.0
109 100 18.0
110 100 20.0
111 100 22.0
112 100 24.0
113 100 26.0
114 100 28.0
115 100 30.0
116 100 32.0
117 100 34.0
118 100 36.0
119 100 38.0
120 100 40.0
102 101 2.0
103 101 4.0
104 101 6.0
105 101 8.0
106 101 10.0
107 101 12.0
108 101 14.0
109 101 16.0
110 101 18.0
111 101 20.0
112 101 22.0
113 101 24.0
114 101 26.0
115 101 28.0
116 101 30.0
117 101 32.0
118 101 34.0
119 101 36.0
120 101 38.0
103 102 2.0
104 102 4.0
105 102 6.0
106 102 8.0
107 102 10.0
108 102 12.0
109 102 14.0
110 102 16.0
111 102 18.0
112 102 20.0
113 102 22.0
114 102 24.0
115 102 26.0
116 102 28.0
117 102 30.0
118 102 32.0
119 102 34.0
120 102 36.0
104 103 2.0
105 103 4.0
106 103 6.0
107 103 8.0
108 103 10.0
109 103 12.0
110 103 14.0
111 103 16.0
112 103 18.0
113 103 20.0
114 103 22.0
115 103 24.0
116 103 26.0
117 103 28.0
118 103 30.0
119 103 32.0
120 103 34.0
105 104 2.0
106 104 4.0
107 104 6.0
108 104 8.0
109 104 10.0
110 104 12.0
111 104 14.0
112 104 16.0
113 104 18.0
114 104 20.0
115 104 22.0
116 104 24.0
117 104 26.0
118 104 28.0
119 104 30.0
120 104 32.0
106 105 2.0
107 105 4.0
108 105 6.0
109 105 8.0
110 105 10.0
111 105 12.0
112 105 14.0
113 105 16.0
114 105 18.0
115 105 20.0
116 105 22.0
117 105 24.0
118 105 26.0
119 105 28.0
120 105 30.0
107 106 2.0
108 106 4.0
109 106 6.0
110 106 8.0
111 106 10.0
112 106 12.0
113 106 14.0
114 106 16.0
115 106 18.0
116 106 20.0
117 106 22.0
118 106 24.0
119 106 26.0
120 106 28.0
108 107 2.0
109 107 4.0
110 107 6.0
111 107 8.0
112 107 10.0
113 107 12.0
114 107 14.0
115 107 16.0
116 107 18.0
117 107 20.0
118 107 22.0
119 107 24.0
120 107 26.0
109 108 2.0
110 108 4.0
111 108 6.0
112 108 8.0
113 108 10.0
114 108 12.0
115 108 14.0
116 108 16.0
117 108 18.0
118 108 20.0
119 108 22.0
120 108 24.0
110 109 2.0
111 109 4.0
112 109 6.0
113 109 8.0
114 109 10.0
115 109 12.0
116 109 14.0
117 109 16.0
118 109 18.0
119 109 20.0
120 109 22.0
111 110 2.0
112 110 4.0
113 110 6.0
114 110 8.0
115 110 10.0
116 110 12.0
117 110 14.0
118 110 16.0
119 110 18.0
120 110 20.0
112 111 2.0
113 111 4.0
114 111 6.0
115 111 8.0
116 111 10.0
117 111 12.0
118 111 14.0
119 111 16.0
120 111 18.0
113 112 2.0
114 112 4.0
115 112 6.0
116 112 8.0
117 112 10.0
118 112 12.0
119 112 14.0
120 112 16.0
114 113 2.0
115 113 4.0
116 113 6.0
117 113 8.0
118 113 10.0
119 113 12.0
120 113 14.0
115 114 2.0
116 114 4.0
117 114 6.0
118 114 8.0
119 114 10.0
120 114 12.0
116 115 2.0
117 115 4.0
118 115 6.0
119 115 8.0
120 115 10.0
117 116 2.0
118 116 4.0
119 116 6.0
120 116 8.0
118 117 2.0
119 117 4.0
120 117 6.0
119 118 2.0
120 118 4.0
120 119 2.0
0.0 # default value for linear coefficients in objective
0 # number of non-default linear coefficients in objective
0.0 # objective constant
120 # number of linear terms in all constraints
1 1 1.0
1 41 1.0
1 81 1.0
2 2 1.0
2 42 1.0
2 82 1.0
3 3 1.0
3 43 1.0
3 83 1.0
4 4 1.0
4 44 1.0
4 84 1.0
5 5 1.0
5 45 1.0
5 85 1.0
6 6 1.0
6 46 1.0
6 86 1.0
7 7 1.0
7 47 1.0
7 87 1.0
8 8 1.0
8 48 1.0
8 88 1.0
9 9 1.0
9 49 1.0
9 89 1.0
10 10 1.0
10 50 1.0
10 90 1.0
11 11 1.0
11 51 1.0
11 91 1.0
12 12 1.0
12 52 1.0
12 92 1.0
13 13 1.0
13 53 1.0
13 93 1.0
14 14 1.0
14 54 1.0
14 94 1.0
15 15 1.0
15 55 1.0
15 95 1.0
16 16 1.0
16 56 1.0
16 96 1.0
17 17 1.0
17 57 1.0
17 97 1.0
18 18 1.0
18 58 1.0
18 98 1.0
19 19 1.0
19 59 1.0
19 99 1.0
20 20 1.0
20 60 1.0
20 100 1.0
21 21 1.0
21 61 1.0
21 101 1.0
22 22 1.0
22 62 1.0
22 102 1.0
23 23 1.0
23 63 1.0
23 103 1.0
24 24 1.0
24 64 1.0
24 104 1.0
25 25 1.0
25 65 1.0
25 105 1.0
26 26 1.0
26 66 1.0
26 106 1.0
27 27 1.0
27 67 1.0
27 107 1.0
28 28 1.0
28 68 1.0
28 108 1.0
29 29 1.0
29 69 1.0
29 109 1.0
30 30 1.0
30 70 1.0
30 110 1.0
31 31 1.0
31 71 1.0
31 111 1.0
32 32 1.0
32 72 1.0
32 112 1.0
33 33 1.0
33 73 1.0
33 113 1.0
34 34 1.0
34 74 1.0
34 114 1.0
35 35 1.0
35 75 1.0
35 115 1.0
36 36 1.0
36 76 1.0
36 116 1.0
37 37 1.0
37 77 1.0
37 117 1.0
38 38 1.0
38 78 1.0
38 118 1.0
39 39 1.0
39 79 1.0
39 119 1.0
40 40 1.0
40 80 1.0
40 120 1.0
1.79769313486232E+308 # value for infinity
1.0 # default left-hand-side value
0 # number of non-default left-hand-sides
1.0 # default right-hand-side value
0 # number of non-default right-hand-sides
0.0 # default variable primal value in starting point
0 # number of non-default variable primal values in starting point
0.0 # default constraint dual value in starting point
0 # number of non-default constraint dual values in starting point
0.0 # default variable bound dual value in starting point
0 # number of non-default variable bound dual values in starting point
0 # number of non-default variable names
0 # number of non-default constraint names
